
include ${pot}.lmp
include kalj.lmp
units lj
atom_style atomic

variable dimensions equal 3
variable density equal 1.2
variable fraca equal 0.8

dimension ${dimensions}
dimension 3
read_restart ${prevbasename}.final.lmprestart.${steps}
read_restart equil/kalj_T0.9_n360_v300_150000_1.final.lmprestart.${steps}
read_restart equil/kalj_T0.9_n360_v300_150000_1.final.lmprestart.150000
Reading restart file ...
  restart file = 15 Sep 2022, LAMMPS = 15 Sep 2022
WARNING: Restart file used different # of processors: 1 vs. 4 (src/read_restart.cpp:659)
  restoring atom style atomic from restart
  orthogonal box = (0 0 0) to (6.6943295 6.6943295 6.6943295)
  1 by 2 by 2 MPI processor grid
  restoring pair style lj/cut from restart
  360 atoms
  read_restart CPU = 0.035 seconds
include ${pot}_particles.lmp
include kalj_particles.lmp
mass * 1.0 #  set mass 1.0 for all types

pair_style lj/cut 2.5
#pair coeffs type1 type2 eps sigma
pair_coeff 1 1 1.0 1.00 2.5
pair_coeff 1 2 1.5 0.80 2.0
pair_coeff 2 2 0.5 0.88 2.2
pair_modify shift yes
reset_timestep 0

print "Setting up equilibration run"
Setting up equilibration run
variable dumptime2 equal ${steps}/2000
variable dumptime2 equal 150000/2000
dump 1 all dcd ${dumptime2} ${basename}.unwrap.dcd
dump 1 all dcd 75 ${basename}.unwrap.dcd
dump 1 all dcd 75 prod/kalj_T0.9_n360_v300_prod_150000_1.unwrap.dcd
#dump 2 all dcd ${dumptime2} ${basename}.dcd
dump_modify 1 unwrap yes
#dump_modify 2 unwrap no

restart ${restarttime} ${basename}.restart
restart 150000 ${basename}.restart
restart 150000 prod/kalj_T0.9_n360_v300_prod_150000_1.restart
restart ${steps} ${basename}.final.lmprestart
restart 150000 ${basename}.final.lmprestart
restart 150000 prod/kalj_T0.9_n360_v300_prod_150000_1.final.lmprestart

thermo ${thermotime}
thermo 5000
timestep ${timestep}
timestep 0.002

neighbor 0.5 bin
neigh_modify every 1 delay ${neighborstep} check yes
neigh_modify every 1 delay 25 check yes

#velocity all create ${temp} ${id} dist gaussian
fix 1 all nvt temp ${temp} ${temp} ${taut}
fix 1 all nvt temp 0.9 ${temp} ${taut}
fix 1 all nvt temp 0.9 0.9 ${taut}
fix 1 all nvt temp 0.9 0.9 0.2
Resetting global fix info from restart file:
  fix style: nvt, fix ID: 1

variable steps4 equal ${steps}/4
variable steps4 equal 150000/4
run ${steps4}
run 37500
Generated 0 of 1 mixed pair_coeff terms from geometric mixing rule
All restart file global fix info was re-assigned
Neighbor list info ...
  update: every = 1 steps, delay = 25 steps, check = yes
  max neighbors/atom: 2000, page size: 100000
  master list distance cutoff = 3
  ghost atom cutoff = 3
  binsize = 1.5, bins = 5 5 5
  1 neighbor lists, perpetual/occasional/extra = 1 0 0
  (1) pair lj/cut, perpetual
      attributes: half, newton on
      pair build: half/bin/atomonly/newton
      stencil: half/bin/3d
      bin: standard
Per MPI rank memory allocation (min/avg/max) = 3.137 | 3.138 | 3.139 Mbytes
   Step          Temp          E_pair         E_mol          TotEng         Press     
         0   0.83643488    -6.074882       0             -4.8237148      9.3112958    
      5000   0.90625602    -6.2070559      0             -4.8514479      8.5786528    
     10000   0.90049186    -6.2646412      0             -4.9176554      8.2176283    
     15000   0.8056876     -6.0625674      0             -4.8573931      9.3052111    
     20000   0.88179876    -6.1101281      0             -4.7911042      9.1784323    
     25000   0.95279522    -6.2139658      0             -4.7887429      8.6823081    
     30000   0.90260889    -6.2473119      0             -4.8971594      8.3156027    
     35000   0.92800584    -6.1422515      0             -4.7541095      9.0497289    
     37500   0.97047354    -6.1764868      0             -4.7248201      8.8722055    
Loop time of 3.86637 on 4 procs for 37500 steps with 360 atoms

Performance: 1675989.283 tau/day, 9699.012 timesteps/s, 3.492 Matom-step/s
99.5% CPU use with 4 MPI tasks x 1 OpenMP threads

MPI task timing breakdown:
Section |  min time  |  avg time  |  max time  |%varavg| %total
---------------------------------------------------------------
Pair    | 1.9255     | 1.9658     | 2.0154     |   2.5 | 50.84
Neigh   | 0.16137    | 0.16538    | 0.16874    |   0.6 |  4.28
Comm    | 1.4304     | 1.4569     | 1.4813     |   1.5 | 37.68
Output  | 0.035092   | 0.040615   | 0.051172   |   3.1 |  1.05
Modify  | 0.15082    | 0.17778    | 0.20428    |   5.4 |  4.60
Other   |            | 0.05986    |            |       |  1.55

Nlocal:             90 ave          96 max          84 min
Histogram: 1 0 0 1 0 0 1 0 0 1
Nghost:        1250.25 ave        1285 max        1215 min
Histogram: 1 0 1 0 0 0 0 1 0 1
Neighs:         5188.5 ave        5425 max        4946 min
Histogram: 1 0 0 1 0 0 0 1 0 1

Total # of neighbors = 20754
Ave neighs/atom = 57.65
Neighbor list builds = 962
Dangerous builds = 0
Total wall time: 0:00:03
