
include ${pot}.lmp
include kalj.lmp
units lj
atom_style atomic

variable dimensions equal 3
variable density equal 1.2
variable fraca equal 0.8

dimension ${dimensions}
dimension 3
read_restart ${prevbasename}.final.lmprestart.${steps}
read_restart equil/kalj_T0.8_n360_v300_150000_1.final.lmprestart.${steps}
read_restart equil/kalj_T0.8_n360_v300_150000_1.final.lmprestart.150000
Reading restart file ...
  restart file = 15 Sep 2022, LAMMPS = 15 Sep 2022
WARNING: Restart file used different # of processors: 1 vs. 4 (src/read_restart.cpp:659)
  restoring atom style atomic from restart
  orthogonal box = (0 0 0) to (6.6943295 6.6943295 6.6943295)
  1 by 2 by 2 MPI processor grid
  restoring pair style lj/cut from restart
  360 atoms
  read_restart CPU = 0.042 seconds
include ${pot}_particles.lmp
include kalj_particles.lmp
mass * 1.0 #  set mass 1.0 for all types

pair_style lj/cut 2.5
#pair coeffs type1 type2 eps sigma
pair_coeff 1 1 1.0 1.00 2.5
pair_coeff 1 2 1.5 0.80 2.0
pair_coeff 2 2 0.5 0.88 2.2
pair_modify shift yes
reset_timestep 0

print "Setting up equilibration run"
Setting up equilibration run
variable dumptime2 equal ${steps}/2000
variable dumptime2 equal 150000/2000
dump 1 all dcd ${dumptime2} ${basename}.unwrap.dcd
dump 1 all dcd 75 ${basename}.unwrap.dcd
dump 1 all dcd 75 prod/kalj_T0.8_n360_v300_prod_150000_1.unwrap.dcd
#dump 2 all dcd ${dumptime2} ${basename}.dcd
dump_modify 1 unwrap yes
#dump_modify 2 unwrap no

restart ${restarttime} ${basename}.restart
restart 150000 ${basename}.restart
restart 150000 prod/kalj_T0.8_n360_v300_prod_150000_1.restart
restart ${steps} ${basename}.final.lmprestart
restart 150000 ${basename}.final.lmprestart
restart 150000 prod/kalj_T0.8_n360_v300_prod_150000_1.final.lmprestart

thermo ${thermotime}
thermo 5000
timestep ${timestep}
timestep 0.002

neighbor 0.5 bin
neigh_modify every 1 delay ${neighborstep} check yes
neigh_modify every 1 delay 25 check yes

#velocity all create ${temp} ${id} dist gaussian
fix 1 all nvt temp ${temp} ${temp} ${taut}
fix 1 all nvt temp 0.8 ${temp} ${taut}
fix 1 all nvt temp 0.8 0.8 ${taut}
fix 1 all nvt temp 0.8 0.8 0.2
Resetting global fix info from restart file:
  fix style: nvt, fix ID: 1

variable steps4 equal ${steps}/4
variable steps4 equal 150000/4
run ${steps4}
run 37500
Generated 0 of 1 mixed pair_coeff terms from geometric mixing rule
All restart file global fix info was re-assigned
Neighbor list info ...
  update: every = 1 steps, delay = 25 steps, check = yes
  max neighbors/atom: 2000, page size: 100000
  master list distance cutoff = 3
  ghost atom cutoff = 3
  binsize = 1.5, bins = 5 5 5
  1 neighbor lists, perpetual/occasional/extra = 1 0 0
  (1) pair lj/cut, perpetual
      attributes: half, newton on
      pair build: half/bin/atomonly/newton
      stencil: half/bin/3d
      bin: standard
Per MPI rank memory allocation (min/avg/max) = 3.138 | 3.138 | 3.139 Mbytes
   Step          Temp          E_pair         E_mol          TotEng         Press     
         0   0.78383585    -6.4405523      0             -5.2680645      6.7911043    
      5000   0.85189283    -6.4010198      0             -5.1267301      7.2647947    
     10000   0.83890546    -6.3910734      0             -5.1362106      7.2992692    
     15000   0.79971058    -6.511293       0             -5.3150593      6.424332     
     20000   0.8123934     -6.3644168      0             -5.1492117      7.5187075    
     25000   0.81730479    -6.2750762      0             -5.0525245      7.946784     
     30000   0.84133802    -6.3560629      0             -5.0975614      7.5667653    
     35000   0.84630375    -6.39093        0             -5.1250007      7.4477615    
     37500   0.77873454    -6.2357502      0             -5.0708931      8.1816742    
Loop time of 3.79504 on 4 procs for 37500 steps with 360 atoms

Performance: 1707491.351 tau/day, 9881.316 timesteps/s, 3.557 Matom-step/s
99.6% CPU use with 4 MPI tasks x 1 OpenMP threads

MPI task timing breakdown:
Section |  min time  |  avg time  |  max time  |%varavg| %total
---------------------------------------------------------------
Pair    | 1.9021     | 1.937      | 1.965      |   1.7 | 51.04
Neigh   | 0.15064    | 0.15255    | 0.15476    |   0.4 |  4.02
Comm    | 1.4098     | 1.4254     | 1.4449     |   1.1 | 37.56
Output  | 0.034993   | 0.040579   | 0.05099    |   3.1 |  1.07
Modify  | 0.15128    | 0.17633    | 0.1999     |   5.2 |  4.65
Other   |            | 0.06327    |            |       |  1.67

Nlocal:             90 ave          92 max          88 min
Histogram: 1 0 1 0 0 0 0 1 0 1
Nghost:         1246.5 ave        1259 max        1233 min
Histogram: 1 0 0 0 1 0 1 0 0 1
Neighs:         5190.5 ave        5293 max        5107 min
Histogram: 2 0 0 0 0 0 0 1 0 1

Total # of neighbors = 20762
Ave neighs/atom = 57.672222
Neighbor list builds = 895
Dangerous builds = 0
Total wall time: 0:00:03
