
include ${pot}.lmp
include kalj.lmp
units lj
atom_style atomic

variable dimensions equal 3
variable density equal 1.2
variable fraca equal 0.8

dimension ${dimensions}
dimension 3
read_restart ${prevbasename}.final.lmprestart.${prevsteps}
read_restart equil/kalj_T1_n360_v300_50000_1.final.lmprestart.${prevsteps}
read_restart equil/kalj_T1_n360_v300_50000_1.final.lmprestart.50000
Reading restart file ...
  restart file = 15 Sep 2022, LAMMPS = 15 Sep 2022
  restoring atom style atomic from restart
  orthogonal box = (0 0 0) to (6.6943295 6.6943295 6.6943295)
  1 by 1 by 1 MPI processor grid
  restoring pair style lj/cut from restart
  360 atoms
  read_restart CPU = 0.001 seconds
include ${pot}_particles.lmp
include kalj_particles.lmp
mass * 1.0 #  set mass 1.0 for all types

pair_style lj/cut 2.5
#pair coeffs type1 type2 eps sigma
pair_coeff 1 1 1.0 1.00 2.5
pair_coeff 1 2 1.5 0.80 2.0
pair_coeff 2 2 0.5 0.88 2.2
pair_modify shift yes
reset_timestep 0

print "Setting up annealing run"
Setting up annealing run
dump 1 all atom ${dumptime} ${basename}.lammpstrj
dump 1 all atom 50000 ${basename}.lammpstrj
dump 1 all atom 50000 equil/kalj_T0.9_n360_v300_150000_1.lammpstrj
#dump_modify 1 sort id scale no

restart ${restarttime} ${basename}.restart
restart 150000 ${basename}.restart
restart 150000 equil/kalj_T0.9_n360_v300_150000_1.restart
restart ${steps} ${basename}.final.lmprestart
restart 150000 ${basename}.final.lmprestart
restart 150000 equil/kalj_T0.9_n360_v300_150000_1.final.lmprestart

thermo ${thermotime}
thermo 5000
timestep ${timestep}
timestep 0.002

neighbor 0.5 bin
neigh_modify every 1 delay ${neighborstep} check yes
neigh_modify every 1 delay 25 check yes

velocity all create ${temp} ${id} dist gaussian
velocity all create 0.9 ${id} dist gaussian
velocity all create 0.9 1 dist gaussian
fix 1 all nvt temp ${temp} ${temp} ${taut}
fix 1 all nvt temp 0.9 ${temp} ${taut}
fix 1 all nvt temp 0.9 0.9 ${taut}
fix 1 all nvt temp 0.9 0.9 0.2
Resetting global fix info from restart file:
  fix style: nvt, fix ID: 1
run ${steps}
run 150000
Generated 0 of 1 mixed pair_coeff terms from geometric mixing rule
All restart file global fix info was re-assigned
Neighbor list info ...
  update: every = 1 steps, delay = 25 steps, check = yes
  max neighbors/atom: 2000, page size: 100000
  master list distance cutoff = 3
  ghost atom cutoff = 3
  binsize = 1.5, bins = 5 5 5
  1 neighbor lists, perpetual/occasional/extra = 1 0 0
  (1) pair lj/cut, perpetual
      attributes: half, newton on
      pair build: half/bin/atomonly/newton
      stencil: half/bin/3d
      bin: standard
Per MPI rank memory allocation (min/avg/max) = 4.157 | 4.157 | 4.157 Mbytes
   Step          Temp          E_pair         E_mol          TotEng         Press     
         0   0.9           -6.0609184      0             -4.7146684      9.3060252    
      5000   0.84318495    -6.1830238      0             -4.9217597      8.5072299    
     10000   0.89673063    -6.152707       0             -4.8113474      8.8527034    
     15000   0.88218211    -6.2092815      0             -4.8896841      8.4850405    
     20000   0.86219012    -6.1567234      0             -4.8670307      8.7950115    
     25000   0.87730987    -6.1081556      0             -4.7958462      9.1237935    
     30000   0.96246678    -6.0704456      0             -4.6307557      9.5139373    
     35000   0.83048681    -6.1708159      0             -4.9285461      8.7549317    
     40000   0.90852527    -6.248199       0             -4.8891966      8.346817     
     45000   0.90831653    -6.172167       0             -4.8134768      8.7003163    
     50000   0.89468052    -6.1862984      0             -4.8480054      8.6225359    
     55000   0.92567895    -6.1585976      0             -4.7739362      8.9828119    
     60000   0.96815484    -6.1454822      0             -4.6972839      9.0042928    
     65000   0.90648444    -6.2057498      0             -4.8498001      8.5913074    
     70000   0.9191859     -6.2873974      0             -4.9124485      8.1629322    
     75000   0.90967949    -6.3456287      0             -4.9848998      7.7300702    
     80000   0.94938479    -6.1817783      0             -4.7616569      8.784313     
     85000   0.80610693    -6.2402771      0             -5.0344755      8.2453726    
     90000   0.91465769    -6.1237504      0             -4.7555749      9.1488986    
     95000   0.88784641    -6.0745014      0             -4.7464311      9.5445623    
    100000   0.90574956    -6.2967643      0             -4.9419139      8.0087118    
    105000   0.9731333     -6.1465843      0             -4.6909391      9.1109799    
    110000   0.91901756    -6.1042692      0             -4.7295721      9.1757953    
    115000   0.89108529    -6.2086022      0             -4.8756872      8.6719183    
    120000   0.92506955    -6.1850042      0             -4.8012543      8.6939673    
    125000   0.85689927    -6.0633506      0             -4.7815721      9.4699515    
    130000   0.87016557    -6.2157035      0             -4.9140809      8.5253971    
    135000   0.92078893    -6.1439759      0             -4.7666291      8.9672273    
    140000   0.8838151     -6.1825826      0             -4.8605425      8.8783046    
    145000   0.87545188    -6.1124832      0             -4.8029531      9.0096571    
    150000   0.83643488    -6.074882       0             -4.8237148      9.3112958    
Loop time of 41.4501 on 1 procs for 150000 steps with 360 atoms

Performance: 625330.009 tau/day, 3618.808 timesteps/s, 1.303 Matom-step/s
99.8% CPU use with 1 MPI tasks x 1 OpenMP threads

MPI task timing breakdown:
Section |  min time  |  avg time  |  max time  |%varavg| %total
---------------------------------------------------------------
Pair    | 36.865     | 36.865     | 36.865     |   0.0 | 88.94
Neigh   | 2.5449     | 2.5449     | 2.5449     |   0.0 |  6.14
Comm    | 1.1373     | 1.1373     | 1.1373     |   0.0 |  2.74
Output  | 0.0024849  | 0.0024849  | 0.0024849  |   0.0 |  0.01
Modify  | 0.71443    | 0.71443    | 0.71443    |   0.0 |  1.72
Other   |            | 0.1859     |            |       |  0.45

Nlocal:            360 ave         360 max         360 min
Histogram: 1 0 0 0 0 0 0 0 0 0
Nghost:           2088 ave        2088 max        2088 min
Histogram: 1 0 0 0 0 0 0 0 0 0
Neighs:          20757 ave       20757 max       20757 min
Histogram: 1 0 0 0 0 0 0 0 0 0

Total # of neighbors = 20757
Ave neighs/atom = 57.658333
Neighbor list builds = 3835
Dangerous builds = 0
Total wall time: 0:00:41
