
include ${pot}.lmp
include kalj.lmp
units lj
atom_style atomic

variable dimensions equal 3
variable density equal 1.2
variable fraca equal 0.8

dimension ${dimensions}
dimension 3
read_restart ${prevbasename}.final.lmprestart.${prevsteps}
read_restart equil/kalj_T0.9_n360_v300_150000_1.final.lmprestart.${prevsteps}
read_restart equil/kalj_T0.9_n360_v300_150000_1.final.lmprestart.150000
Reading restart file ...
  restart file = 15 Sep 2022, LAMMPS = 15 Sep 2022
  restoring atom style atomic from restart
  orthogonal box = (0 0 0) to (6.6943295 6.6943295 6.6943295)
  1 by 1 by 1 MPI processor grid
  restoring pair style lj/cut from restart
  360 atoms
  read_restart CPU = 0.002 seconds
include ${pot}_particles.lmp
include kalj_particles.lmp
mass * 1.0 #  set mass 1.0 for all types

pair_style lj/cut 2.5
#pair coeffs type1 type2 eps sigma
pair_coeff 1 1 1.0 1.00 2.5
pair_coeff 1 2 1.5 0.80 2.0
pair_coeff 2 2 0.5 0.88 2.2
pair_modify shift yes
reset_timestep 0

print "Setting up annealing run"
Setting up annealing run
dump 1 all atom ${dumptime} ${basename}.lammpstrj
dump 1 all atom 50000 ${basename}.lammpstrj
dump 1 all atom 50000 equil/kalj_T0.8_n360_v300_150000_1.lammpstrj
#dump_modify 1 sort id scale no

restart ${restarttime} ${basename}.restart
restart 150000 ${basename}.restart
restart 150000 equil/kalj_T0.8_n360_v300_150000_1.restart
restart ${steps} ${basename}.final.lmprestart
restart 150000 ${basename}.final.lmprestart
restart 150000 equil/kalj_T0.8_n360_v300_150000_1.final.lmprestart

thermo ${thermotime}
thermo 5000
timestep ${timestep}
timestep 0.002

neighbor 0.5 bin
neigh_modify every 1 delay ${neighborstep} check yes
neigh_modify every 1 delay 25 check yes

velocity all create ${temp} ${id} dist gaussian
velocity all create 0.8 ${id} dist gaussian
velocity all create 0.8 1 dist gaussian
fix 1 all nvt temp ${temp} ${temp} ${taut}
fix 1 all nvt temp 0.8 ${temp} ${taut}
fix 1 all nvt temp 0.8 0.8 ${taut}
fix 1 all nvt temp 0.8 0.8 0.2
Resetting global fix info from restart file:
  fix style: nvt, fix ID: 1
run ${steps}
run 150000
Generated 0 of 1 mixed pair_coeff terms from geometric mixing rule
All restart file global fix info was re-assigned
Neighbor list info ...
  update: every = 1 steps, delay = 25 steps, check = yes
  max neighbors/atom: 2000, page size: 100000
  master list distance cutoff = 3
  ghost atom cutoff = 3
  binsize = 1.5, bins = 5 5 5
  1 neighbor lists, perpetual/occasional/extra = 1 0 0
  (1) pair lj/cut, perpetual
      attributes: half, newton on
      pair build: half/bin/atomonly/newton
      stencil: half/bin/3d
      bin: standard
Per MPI rank memory allocation (min/avg/max) = 4.156 | 4.156 | 4.156 Mbytes
   Step          Temp          E_pair         E_mol          TotEng         Press     
         0   0.8           -6.074882       0             -4.8782153      9.2676954    
      5000   0.74199999    -6.225915       0             -5.1160067      8.346031     
     10000   0.84079127    -6.3707284      0             -5.1130448      7.4747669    
     15000   0.81078209    -6.2728905      0             -5.0600956      7.985402     
     20000   0.78659841    -6.3833903      0             -5.2067702      7.3638008    
     25000   0.81218029    -6.2405665      0             -5.0256802      8.103793     
     30000   0.83364374    -6.4266297      0             -5.1796376      7.2722113    
     35000   0.79110183    -6.3084935      0             -5.125137       7.8843922    
     40000   0.80982655    -6.3899428      0             -5.1785772      7.3579304    
     45000   0.764524      -6.3743563      0             -5.2307558      7.5006978    
     50000   0.76198035    -6.3661993      0             -5.2264037      7.3436193    
     55000   0.76522394    -6.3754312      0             -5.2307838      7.2797149    
     60000   0.76530284    -6.3709121      0             -5.2261466      7.49689      
     65000   0.85227147    -6.2922995      0             -5.0174435      8.0717264    
     70000   0.75254643    -6.3166938      0             -5.1910098      7.6170408    
     75000   0.7618828     -6.2557069      0             -5.1160573      7.9484741    
     80000   0.79607089    -6.3432335      0             -5.1524441      7.7417288    
     85000   0.82730131    -6.4120002      0             -5.1744953      7.0472478    
     90000   0.82228983    -6.2687798      0             -5.0387713      8.1034145    
     95000   0.75983284    -6.4229634      0             -5.2863801      7.0754752    
    100000   0.76413141    -6.3348876      0             -5.1918743      7.7044459    
    105000   0.81272626    -6.2505619      0             -5.0348589      8.0987535    
    110000   0.80848443    -6.3179465      0             -5.1085886      7.720088     
    115000   0.78713071    -6.3158769      0             -5.1384606      7.6745278    
    120000   0.78524754    -6.3825546      0             -5.2079551      7.3966641    
    125000   0.77175523    -6.4381147      0             -5.2836975      6.9132434    
    130000   0.81583738    -6.3233796      0             -5.1030228      7.7961266    
    135000   0.78067894    -6.3185279      0             -5.1507624      7.7476129    
    140000   0.81005821    -6.4189717      0             -5.2072597      7.2651672    
    145000   0.76662761    -6.2765515      0             -5.1298044      8.1471046    
    150000   0.78383585    -6.4405523      0             -5.2680645      6.7911043    
Loop time of 40.4955 on 1 procs for 150000 steps with 360 atoms

Performance: 640071.722 tau/day, 3704.119 timesteps/s, 1.333 Matom-step/s
99.8% CPU use with 1 MPI tasks x 1 OpenMP threads

MPI task timing breakdown:
Section |  min time  |  avg time  |  max time  |%varavg| %total
---------------------------------------------------------------
Pair    | 36.082     | 36.082     | 36.082     |   0.0 | 89.10
Neigh   | 2.3753     | 2.3753     | 2.3753     |   0.0 |  5.87
Comm    | 1.1261     | 1.1261     | 1.1261     |   0.0 |  2.78
Output  | 0.0024376  | 0.0024376  | 0.0024376  |   0.0 |  0.01
Modify  | 0.72065    | 0.72065    | 0.72065    |   0.0 |  1.78
Other   |            | 0.189      |            |       |  0.47

Nlocal:            360 ave         360 max         360 min
Histogram: 1 0 0 0 0 0 0 0 0 0
Nghost:           2103 ave        2103 max        2103 min
Histogram: 1 0 0 0 0 0 0 0 0 0
Neighs:          20719 ave       20719 max       20719 min
Histogram: 1 0 0 0 0 0 0 0 0 0

Total # of neighbors = 20719
Ave neighs/atom = 57.552778
Neighbor list builds = 3588
Dangerous builds = 0
Total wall time: 0:00:40
