
include ${pot}.lmp
include kalj.lmp
units lj
atom_style atomic

variable dimensions equal 3
variable density equal 1.2
variable fraca equal 0.8

dimension ${dimensions}
dimension 3
read_restart ${prevbasename}.final.lmprestart.${prevsteps}
read_restart equil/kalj_T0.65_n360_v300_350000_1.final.lmprestart.${prevsteps}
read_restart equil/kalj_T0.65_n360_v300_350000_1.final.lmprestart.350000
Reading restart file ...
  restart file = 15 Sep 2022, LAMMPS = 15 Sep 2022
  restoring atom style atomic from restart
  orthogonal box = (0 0 0) to (6.6943295 6.6943295 6.6943295)
  1 by 1 by 1 MPI processor grid
  restoring pair style lj/cut from restart
  360 atoms
  read_restart CPU = 0.001 seconds
include ${pot}_particles.lmp
include kalj_particles.lmp
mass * 1.0 #  set mass 1.0 for all types

pair_style lj/cut 2.5
#pair coeffs type1 type2 eps sigma
pair_coeff 1 1 1.0 1.00 2.5
pair_coeff 1 2 1.5 0.80 2.0
pair_coeff 2 2 0.5 0.88 2.2
pair_modify shift yes
reset_timestep 0

print "Setting up annealing run"
Setting up annealing run
dump 1 all atom ${dumptime} ${basename}.lammpstrj
dump 1 all atom 100000 ${basename}.lammpstrj
dump 1 all atom 100000 equil/kalj_T0.6_n360_v300_1000000_1.lammpstrj
#dump_modify 1 sort id scale no

restart ${restarttime} ${basename}.restart
restart 1000000 ${basename}.restart
restart 1000000 equil/kalj_T0.6_n360_v300_1000000_1.restart
restart ${steps} ${basename}.final.lmprestart
restart 1000000 ${basename}.final.lmprestart
restart 1000000 equil/kalj_T0.6_n360_v300_1000000_1.final.lmprestart

thermo ${thermotime}
thermo 50000
timestep ${timestep}
timestep 0.003

neighbor 0.5 bin
neigh_modify every 1 delay ${neighborstep} check yes
neigh_modify every 1 delay 25 check yes

velocity all create ${temp} ${id} dist gaussian
velocity all create 0.6 ${id} dist gaussian
velocity all create 0.6 1 dist gaussian
fix 1 all nvt temp ${temp} ${temp} ${taut}
fix 1 all nvt temp 0.6 ${temp} ${taut}
fix 1 all nvt temp 0.6 0.6 ${taut}
fix 1 all nvt temp 0.6 0.6 0.3
Resetting global fix info from restart file:
  fix style: nvt, fix ID: 1
run ${steps}
run 1000000
Generated 0 of 1 mixed pair_coeff terms from geometric mixing rule
All restart file global fix info was re-assigned
Neighbor list info ...
  update: every = 1 steps, delay = 25 steps, check = yes
  max neighbors/atom: 2000, page size: 100000
  master list distance cutoff = 3
  ghost atom cutoff = 3
  binsize = 1.5, bins = 5 5 5
  1 neighbor lists, perpetual/occasional/extra = 1 0 0
  (1) pair lj/cut, perpetual
      attributes: half, newton on
      pair build: half/bin/atomonly/newton
      stencil: half/bin/3d
      bin: standard
Per MPI rank memory allocation (min/avg/max) = 4.158 | 4.158 | 4.158 Mbytes
   Step          Temp          E_pair         E_mol          TotEng         Press     
         0   0.6           -6.5546119      0             -5.6571119      5.9554838    
     50000   0.56437588    -6.6387627      0             -5.7945504      5.4583562    
    100000   0.58427639    -6.7175492      0             -5.8435691      4.9988814    
    150000   0.63272227    -6.7057474      0             -5.7593004      5.1128714    
    200000   0.63191973    -6.6919537      0             -5.7467071      5.2765935    
    250000   0.65152444    -6.7434113      0             -5.7688393      4.9767474    
    300000   0.58366749    -6.7521922      0             -5.8791229      4.7400911    
    350000   0.58555152    -6.7822534      0             -5.9063659      4.6370624    
    400000   0.56149587    -6.729013       0             -5.8891087      4.8608318    
    450000   0.57988999    -6.751933       0             -5.8845142      4.85832      
    500000   0.57574729    -6.7499458      0             -5.8887238      4.6858888    
    550000   0.57087118    -6.7326804      0             -5.8787523      4.9492547    
    600000   0.62471722    -6.7204941      0             -5.7860212      5.0675581    
    650000   0.53005358    -6.7213995      0             -5.9285276      4.9272952    
    700000   0.61749946    -6.6913776      0             -5.7677013      5.3180449    
    750000   0.57162208    -6.666966       0             -5.8119146      5.2176583    
    800000   0.57182009    -6.6797765      0             -5.824429       5.0888259    
    850000   0.61395551    -6.7535777      0             -5.8352026      4.8849423    
    900000   0.65374877    -6.7077504      0             -5.7298512      5.1974508    
    950000   0.61066246    -6.7268548      0             -5.8134055      4.9003367    
   1000000   0.54239625    -6.7915888      0             -5.9802544      4.5917932    
Loop time of 267.332 on 1 procs for 1000000 steps with 360 atoms

Performance: 969579.196 tau/day, 3740.660 timesteps/s, 1.347 Matom-step/s
99.8% CPU use with 1 MPI tasks x 1 OpenMP threads

MPI task timing breakdown:
Section |  min time  |  avg time  |  max time  |%varavg| %total
---------------------------------------------------------------
Pair    | 233.98     | 233.98     | 233.98     |   0.0 | 87.52
Neigh   | 19.761     | 19.761     | 19.761     |   0.0 |  7.39
Comm    | 7.6907     | 7.6907     | 7.6907     |   0.0 |  2.88
Output  | 0.005984   | 0.005984   | 0.005984   |   0.0 |  0.00
Modify  | 4.7107     | 4.7107     | 4.7107     |   0.0 |  1.76
Other   |            | 1.184      |            |       |  0.44

Nlocal:            360 ave         360 max         360 min
Histogram: 1 0 0 0 0 0 0 0 0 0
Nghost:           2104 ave        2104 max        2104 min
Histogram: 1 0 0 0 0 0 0 0 0 0
Neighs:          20762 ave       20762 max       20762 min
Histogram: 1 0 0 0 0 0 0 0 0 0

Total # of neighbors = 20762
Ave neighs/atom = 57.672222
Neighbor list builds = 29896
Dangerous builds = 515
Total wall time: 0:04:27
