
include ${pot}.lmp
include kalj.lmp
units lj
atom_style atomic

variable dimensions equal 3
variable density equal 1.2
variable fraca equal 0.8

dimension ${dimensions}
dimension 3
read_restart ${prevbasename}.final.lmprestart.${prevsteps}
read_restart equil/kalj_T0.6_n360_v300_1000000_1.final.lmprestart.${prevsteps}
read_restart equil/kalj_T0.6_n360_v300_1000000_1.final.lmprestart.1000000
Reading restart file ...
  restart file = 15 Sep 2022, LAMMPS = 15 Sep 2022
  restoring atom style atomic from restart
  orthogonal box = (0 0 0) to (6.6943295 6.6943295 6.6943295)
  1 by 1 by 1 MPI processor grid
  restoring pair style lj/cut from restart
  360 atoms
  read_restart CPU = 0.002 seconds
include ${pot}_particles.lmp
include kalj_particles.lmp
mass * 1.0 #  set mass 1.0 for all types

pair_style lj/cut 2.5
#pair coeffs type1 type2 eps sigma
pair_coeff 1 1 1.0 1.00 2.5
pair_coeff 1 2 1.5 0.80 2.0
pair_coeff 2 2 0.5 0.88 2.2
pair_modify shift yes
reset_timestep 0

print "Setting up annealing run"
Setting up annealing run
dump 1 all atom ${dumptime} ${basename}.lammpstrj
dump 1 all atom 300000 ${basename}.lammpstrj
dump 1 all atom 300000 equil/kalj_T0.55_n360_v300_3000000_1.lammpstrj
#dump_modify 1 sort id scale no

restart ${restarttime} ${basename}.restart
restart 3000000 ${basename}.restart
restart 3000000 equil/kalj_T0.55_n360_v300_3000000_1.restart
restart ${steps} ${basename}.final.lmprestart
restart 3000000 ${basename}.final.lmprestart
restart 3000000 equil/kalj_T0.55_n360_v300_3000000_1.final.lmprestart

thermo ${thermotime}
thermo 30000
timestep ${timestep}
timestep 0.003

neighbor 0.5 bin
neigh_modify every 1 delay ${neighborstep} check yes
neigh_modify every 1 delay 25 check yes

velocity all create ${temp} ${id} dist gaussian
velocity all create 0.55 ${id} dist gaussian
velocity all create 0.55 1 dist gaussian
fix 1 all nvt temp ${temp} ${temp} ${taut}
fix 1 all nvt temp 0.55 ${temp} ${taut}
fix 1 all nvt temp 0.55 0.55 ${taut}
fix 1 all nvt temp 0.55 0.55 0.3
Resetting global fix info from restart file:
  fix style: nvt, fix ID: 1
run ${steps}
run 3000000
Generated 0 of 1 mixed pair_coeff terms from geometric mixing rule
All restart file global fix info was re-assigned
Neighbor list info ...
  update: every = 1 steps, delay = 25 steps, check = yes
  max neighbors/atom: 2000, page size: 100000
  master list distance cutoff = 3
  ghost atom cutoff = 3
  binsize = 1.5, bins = 5 5 5
  1 neighbor lists, perpetual/occasional/extra = 1 0 0
  (1) pair lj/cut, perpetual
      attributes: half, newton on
      pair build: half/bin/atomonly/newton
      stencil: half/bin/3d
      bin: standard
Per MPI rank memory allocation (min/avg/max) = 4.157 | 4.157 | 4.157 Mbytes
   Step          Temp          E_pair         E_mol          TotEng         Press     
         0   0.55          -6.7915888      0             -5.9688805      4.6008923    
     30000   0.51269386    -6.8462534      0             -6.0793489      4.1066331    
     60000   0.5923642     -6.9017041      0             -6.015626       3.9361197    
     90000   0.55137528    -6.8029989      0             -5.9782334      4.4025153    
    120000   0.54243901    -6.8708438      0             -6.0594455      4.042744     
    150000   0.55791969    -6.835164       0             -6.0006091      4.1083785    
    180000   0.52453675    -6.8038476      0             -6.0192281      4.2948494    
    210000   0.58970819    -6.8083952      0             -5.92629        4.6024183    
    240000   0.55166399    -6.845453       0             -6.0202556      4.0376473    
    270000   0.54371791    -6.7569383      0             -5.9436269      4.7511061    
    300000   0.56059026    -6.8189706      0             -5.980421       4.3829053    
    330000   0.58012706    -6.794673       0             -5.9268996      4.6345584    
    360000   0.56481934    -6.8072249      0             -5.9623493      4.402921     
    390000   0.56729584    -6.7723768      0             -5.9237968      4.5785887    
    420000   0.55443763    -6.7803946      0             -5.9510483      4.5481555    
    450000   0.53474816    -6.8485999      0             -6.0487058      4.1158211    
    480000   0.566292      -6.7884322      0             -5.9413537      4.4618146    
    510000   0.54973394    -6.7764635      0             -5.9541531      4.7042267    
    540000   0.54688583    -6.8350014      0             -6.0169513      4.3631826    
    570000   0.51911625    -6.8138635      0             -6.0373521      4.2410054    
    600000   0.57304973    -6.7869274      0             -5.9297405      4.5983394    
    630000   0.56242961    -6.8221911      0             -5.9808902      4.5328949    
    660000   0.52125938    -6.8203112      0             -6.0405941      4.316989     
    690000   0.54481101    -6.8230285      0             -6.008082       4.4104752    
    720000   0.53267119    -6.8583325      0             -6.0615452      4.0942167    
    750000   0.53944542    -6.7447693      0             -5.9378489      4.632059     
    780000   0.56720866    -6.8727254      0             -6.0242758      4.1160656    
    810000   0.57165906    -6.8244982      0             -5.9693915      4.3202526    
    840000   0.53643532    -6.7433372      0             -5.9409194      4.8411799    
    870000   0.59716024    -6.7702231      0             -5.876971       4.6488367    
    900000   0.55586851    -6.8509761      0             -6.0194894      4.2928952    
    930000   0.56410338    -6.8096117      0             -5.965807       4.5267133    
    960000   0.54251029    -6.7932358      0             -5.9817308      4.5114266    
    990000   0.54473818    -6.806315       0             -5.9914775      4.4565442    
   1020000   0.50611938    -6.8988246      0             -6.1417544      3.7481716    
   1050000   0.53965612    -6.6694914      0             -5.8622558      5.5033167    
   1080000   0.54469147    -6.7270755      0             -5.9123078      4.9262998    
   1110000   0.51736022    -6.7651785      0             -5.9912938      4.7109517    
   1140000   0.59882869    -6.7942971      0             -5.8985492      4.8080747    
   1170000   0.51064931    -6.794146       0             -6.0302997      4.4025781    
   1200000   0.5413243     -6.7551282      0             -5.9453972      4.7654094    
   1230000   0.5690801     -6.7542856      0             -5.9030367      4.7086182    
   1260000   0.53820033    -6.7379759      0             -5.932918       4.8428355    
   1290000   0.58116592    -6.775935       0             -5.9066077      4.631503     
   1320000   0.5836299     -6.8712685      0             -5.9982554      4.0549681    
   1350000   0.54792553    -6.7994853      0             -5.97988        4.5231682    
   1380000   0.60989062    -6.8793622      0             -5.9670674      3.9955176    
   1410000   0.55277652    -6.7107541      0             -5.8838926      5.0646559    
   1440000   0.52266203    -6.8457877      0             -6.0639724      4.2853058    
   1470000   0.52554479    -6.8289093      0             -6.0427819      4.2966678    
   1500000   0.54141827    -6.7849627      0             -5.9750912      4.7187944    
   1530000   0.53624633    -6.7725901      0             -5.970455       4.3712527    
   1560000   0.54838984    -6.7458056      0             -5.9255058      4.8222504    
   1590000   0.56080503    -6.8317105      0             -5.9928396      4.1864222    
   1620000   0.52145229    -6.8128483      0             -6.0328426      4.4598457    
   1650000   0.54832253    -6.8210738      0             -6.0008746      4.3606393    
   1680000   0.52650901    -6.746947       0             -5.9593773      4.8955896    
   1710000   0.52602683    -6.8448593      0             -6.0580108      4.1160274    
   1740000   0.56927827    -6.8111356      0             -5.9595902      4.3580399    
   1770000   0.53505553    -6.8015728      0             -6.0012189      4.4840032    
   1800000   0.51817263    -6.8916692      0             -6.1165693      4.0227751    
   1830000   0.59829727    -6.8715561      0             -5.9766031      4.1290647    
   1860000   0.54080716    -6.7618814      0             -5.952924       4.8036146    
   1890000   0.5432051     -6.8138884      0             -6.0013441      4.4745661    
   1920000   0.54864336    -6.8131911      0             -5.9925121      4.4215209    
   1950000   0.54825018    -6.7068507      0             -5.8867598      5.0223178    
   1980000   0.52682976    -6.8609873      0             -6.0729378      4.25525      
   2010000   0.54792085    -6.7767427      0             -5.9571444      4.7467023    
   2040000   0.52063938    -6.8270683      0             -6.0482785      4.1288654    
   2070000   0.5659897     -6.8217154      0             -5.9750891      4.3083635    
   2100000   0.54950181    -6.7947877      0             -5.9728246      4.6071152    
   2130000   0.58180131    -6.8942118      0             -6.023934       3.8219737    
   2160000   0.51624421    -6.7160515      0             -5.9438362      4.8873332    
   2190000   0.5534547     -6.8106465      0             -5.9827705      4.3679284    
   2220000   0.55211432    -6.7794089      0             -5.9535379      4.784511     
   2250000   0.54384728    -6.8197509      0             -6.006246       4.2786468    
   2280000   0.56378309    -6.7288626      0             -5.885537       4.8300624    
   2310000   0.56826101    -6.7213317      0             -5.871308       4.9729791    
   2340000   0.52208806    -6.7603745      0             -5.9794177      4.6922345    
   2370000   0.56321557    -6.8155192      0             -5.9730425      4.3515873    
   2400000   0.59520127    -6.7989816      0             -5.9086597      4.4472032    
   2430000   0.51396307    -6.7254803      0             -5.9566772      4.8619375    
   2460000   0.56040574    -6.8059313      0             -5.9676578      4.4613898    
   2490000   0.54809661    -6.7486763      0             -5.9288152      4.8823082    
   2520000   0.53727323    -6.7389351      0             -5.9352639      4.7790212    
   2550000   0.52547554    -6.6592935      0             -5.8732697      5.4639587    
   2580000   0.55089635    -6.8643159      0             -6.0402668      4.1350562    
   2610000   0.54226582    -6.7747818      0             -5.9636426      4.5573692    
   2640000   0.57663644    -6.7819009      0             -5.9193489      4.6054537    
   2670000   0.53206022    -6.8157819      0             -6.0199084      4.2447219    
   2700000   0.51371994    -6.760607       0             -5.9921676      4.5390893    
   2730000   0.53249589    -6.7335321      0             -5.937007       4.7589539    
   2760000   0.56718924    -6.8688113      0             -6.0203908      4.2899       
   2790000   0.5240245     -6.8412186      0             -6.0573653      4.1818222    
   2820000   0.52281827    -6.7874498      0             -6.0054008      4.6692352    
   2850000   0.58387312    -6.8777419      0             -6.004365       3.9525073    
   2880000   0.52437554    -6.8248437      0             -6.0404652      4.3191585    
   2910000   0.5708867     -6.8290371      0             -5.9750858      4.3101065    
   2940000   0.53486037    -6.7594308      0             -5.9593688      4.7955701    
   2970000   0.54891306    -6.8126731      0             -5.9915906      4.2803544    
   3000000   0.53627048    -6.8221906      0             -6.0200194      4.4752814    
Loop time of 817.041 on 1 procs for 3000000 steps with 360 atoms

Performance: 951727.312 tau/day, 3671.787 timesteps/s, 1.322 Matom-step/s
99.8% CPU use with 1 MPI tasks x 1 OpenMP threads

MPI task timing breakdown:
Section |  min time  |  avg time  |  max time  |%varavg| %total
---------------------------------------------------------------
Pair    | 719.73     | 719.73     | 719.73     |   0.0 | 88.09
Neigh   | 55.958     | 55.958     | 55.958     |   0.0 |  6.85
Comm    | 22.993     | 22.993     | 22.993     |   0.0 |  2.81
Output  | 0.0079489  | 0.0079489  | 0.0079489  |   0.0 |  0.00
Modify  | 14.756     | 14.756     | 14.756     |   0.0 |  1.81
Other   |            | 3.598      |            |       |  0.44

Nlocal:            360 ave         360 max         360 min
Histogram: 1 0 0 0 0 0 0 0 0 0
Nghost:           2069 ave        2069 max        2069 min
Histogram: 1 0 0 0 0 0 0 0 0 0
Neighs:          20767 ave       20767 max       20767 min
Histogram: 1 0 0 0 0 0 0 0 0 0

Total # of neighbors = 20767
Ave neighs/atom = 57.686111
Neighbor list builds = 84885
Dangerous builds = 590
Total wall time: 0:13:37
